(declare-const a Real)
(declare-const b Real)
(declare-const c Real)
(assert (= (* a b c) 1))
(assert (> a 0))
(assert (> b 0))
(assert (> c 0))
(assert (not (<= (+ (* -11105878016 (pow a 4)) (* 106555392 (pow (+ a b) 4)) (* -57964642304 (pow a (/ 3538944 3537881)) (pow b (/ 10612580 3537881))) (* 15815081984 b (pow a 3)) (* 51550552064 a (pow b 3))) 0)))
(check-sat)
(get-model)
(exit)